70
1 0 3
2 0 4
2 1 5
3 0 1
3 1 3
4 1 1
5 2 1
5 4 5
6 1 1
6 2 3
6 5 2
7 0 4
7 1 4
7 2 4
7 4 5
7 6 1
8 2 5
8 3 3
8 4 2
8 6 2
9 1 5
9 3 5
9 7 2
10 4 5
10 5 5
11 0 2
11 2 1
11 4 5
11 8 1
11 9 1
12 1 3
12 2 3
12 4 5
12 5 3
12 6 2
13 2 3
13 3 2
13 4 3
13 5 1
13 6 1
13 8 2
13 10 4
13 11 4
13 12 1
14 2 5
14 3 1
14 6 3
14 9 3
14 10 2
14 11 2
14 12 1
15 2 4
15 4 1
15 6 5
15 9 1
15 14 3
16 0 4
16 2 4
16 3 5
16 4 3
16 6 3
16 10 2
16 12 5
16 13 3
16 15 5
17 0 4
17 1 1
17 2 5
17 3 1
17 4 5
17 5 3
17 6 5
17 7 1
17 10 3
17 11 2
17 13 5
17 14 3
17 16 5
18 0 5
18 1 5
18 6 5
18 8 5
18 10 4
18 11 4
18 12 4
18 13 3
19 1 2
19 3 1
19 4 2
19 7 3
19 10 5
19 12 5
19 13 4
19 15 1
19 18 5
20 0 1
20 1 2
20 2 1
20 3 3
20 5 5
20 8 4
20 9 1
20 11 4
20 13 2
20 14 3
20 15 3
20 16 2
20 19 4
21 7 1
21 8 4
21 9 4
21 13 3
21 14 4
21 18 5
21 19 2
21 20 5
22 1 3
22 2 1
22 3 5
22 5 2
22 6 1
22 8 5
22 9 1
22 10 2
22 14 3
22 15 5
22 16 5
22 20 1
22 21 4
23 0 4
23 1 2
23 3 4
23 6 5
23 7 2
23 9 4
23 11 3
23 12 1
23 15 4
23 18 4
23 19 3
23 21 4
24 1 2
24 2 2
24 5 4
24 9 5
24 10 3
24 11 2
24 14 1
24 15 4
24 17 1
24 18 1
24 19 1
24 20 2
24 22 3
24 23 2
25 1 2
25 2 2
25 3 3
25 4 3
25 5 5
25 6 2
25 8 1
25 9 2
25 10 2
25 13 5
25 15 2
25 16 4
25 17 3
25 19 5
25 21 4
25 24 4
26 0 3
26 2 1
26 6 3
26 8 3
26 10 1
26 11 5
26 13 4
26 14 3
26 15 3
26 17 3
27 0 3
27 1 4
27 2 2
27 5 1
27 7 2
27 8 1
27 9 1
27 12 2
27 15 1
27 16 2
27 20 2
27 21 3
27 23 2
28 0 1
28 6 2
28 7 5
28 9 5
28 10 1
28 11 4
28 12 5
28 13 4
28 15 2
28 16 4
28 17 2
28 19 5
28 20 3
28 21 2
28 25 5
28 27 3
29 0 5
29 3 1
29 4 4
29 5 3
29 7 2
29 8 2
29 9 1
29 16 2
29 17 1
29 19 5
29 20 4
29 22 4
29 23 1
29 24 5
29 26 1
29 28 2
30 3 1
30 5 4
30 6 5
30 10 2
30 11 1
30 12 2
30 13 3
30 15 3
30 17 5
30 18 2
30 20 4
30 24 1
30 25 3
30 27 1
31 0 2
31 1 2
31 2 2
31 3 1
31 4 4
31 5 4
31 6 5
31 8 4
31 9 4
31 10 5
31 13 3
31 15 5
31 17 5
31 20 2
31 23 4
31 25 3
31 28 5
31 30 1
32 0 5
32 1 4
32 2 5
32 3 5
32 5 1
32 6 4
32 9 4
32 10 1
32 11 2
32 14 4
32 15 1
32 16 1
32 17 3
32 18 4
32 20 2
32 24 3
32 25 5
32 26 5
32 28 4
32 29 1
32 31 2
33 2 4
33 5 5
33 6 3
33 8 1
33 10 5
33 12 5
33 14 2
33 15 5
33 16 4
33 17 5
33 22 5
33 27 2
33 29 3
33 31 1
33 32 1
34 1 2
34 2 4
34 4 3
34 5 2
34 7 1
34 13 4
34 16 1
34 18 4
34 20 5
34 21 3
34 24 1
34 25 3
34 26 1
34 28 5
34 29 2
34 30 4
35 2 5
35 3 4
35 4 3
35 5 1
35 7 2
35 8 5
35 10 1
35 11 4
35 12 1
35 14 4
35 18 5
35 19 5
35 20 1
35 21 2
35 22 3
35 25 1
35 29 5
35 30 4
35 31 3
35 32 1
35 33 2
36 0 5
36 3 3
36 6 3
36 7 1
36 9 1
36 13 3
36 14 4
36 17 2
36 19 1
36 22 4
36 23 1
36 24 1
36 26 1
36 28 3
36 29 4
36 31 4
36 33 4
36 34 2
36 35 1
37 2 3
37 3 1
37 6 4
37 7 1
37 9 5
37 13 1
37 14 3
37 15 5
37 16 3
37 19 1
37 21 1
37 23 4
37 25 5
37 27 2
37 28 4
37 29 2
37 36 3
38 0 4
38 1 1
38 3 2
38 6 2
38 7 1
38 8 2
38 11 2
38 15 1
38 16 4
38 17 1
38 21 4
38 24 5
38 26 4
38 27 5
38 28 1
38 29 3
38 31 3
38 33 2
38 34 4
38 37 1
39 1 2
39 5 5
39 6 1
39 7 2
39 9 1
39 10 3
39 12 4
39 15 2
39 16 3
39 18 4
39 19 4
39 20 3
39 21 5
39 22 1
39 23 5
39 24 1
39 26 2
39 28 4
39 30 1
39 34 3
39 38 2
40 0 5
40 1 2
40 4 5
40 6 3
40 7 5
40 12 2
40 13 4
40 14 4
40 16 3
40 17 3
40 18 3
40 22 3
40 24 4
40 25 4
40 26 5
40 27 2
40 29 5
40 31 3
40 33 4
40 34 1
40 36 1
40 38 1
40 39 5
41 2 3
41 4 1
41 5 4
41 7 3
41 8 5
41 9 5
41 13 4
41 14 2
41 15 5
41 18 2
41 19 5
41 21 4
41 26 2
41 27 4
41 30 4
41 36 5
41 40 4
42 0 2
42 5 1
42 8 3
42 9 3
42 10 2
42 12 1
42 13 1
42 16 1
42 17 1
42 19 5
42 23 1
42 25 2
42 26 5
42 29 5
42 32 1
42 33 3
42 36 2
42 37 4
42 41 5
43 1 5
43 2 4
43 4 2
43 5 2
43 7 3
43 9 2
43 11 3
43 12 2
43 13 1
43 15 4
43 18 2
43 20 2
43 21 4
43 22 1
43 23 4
43 24 1
43 29 5
43 30 1
43 31 1
43 35 3
43 36 2
44 0 5
44 1 5
44 2 3
44 7 4
44 9 4
44 12 4
44 14 3
44 19 1
44 22 1
44 25 3
44 28 1
44 29 2
44 31 1
44 32 2
44 33 5
44 36 5
44 37 4
44 38 3
44 41 5
44 43 1
45 2 5
45 3 3
45 4 5
45 6 5
45 7 2
45 8 1
45 9 4
45 10 5
45 11 1
45 15 4
45 17 3
45 18 2
45 21 5
45 23 5
45 28 1
45 29 3
45 33 4
45 36 2
45 38 1
45 40 2
45 43 3
45 44 4
46 0 1
46 3 3
46 4 4
46 5 2
46 6 5
46 7 5
46 11 5
46 16 3
46 22 2
46 25 1
46 26 2
46 27 2
46 28 3
46 29 4
46 30 3
46 31 1
46 36 1
46 37 4
46 38 4
46 39 2
46 40 3
46 42 5
46 43 3
46 44 1
46 45 5
47 2 1
47 5 3
47 6 5
47 9 4
47 10 3
47 13 1
47 14 4
47 19 4
47 21 4
47 23 1
47 24 1
47 26 2
47 27 4
47 28 3
47 31 1
47 33 5
47 34 4
47 35 2
47 37 3
47 41 2
47 42 4
47 45 3
48 1 1
48 3 4
48 5 3
48 6 2
48 7 3
48 8 2
48 9 3
48 11 1
48 16 4
48 20 5
48 23 1
48 24 1
48 25 1
48 26 2
48 27 3
48 30 1
48 31 4
48 32 3
48 35 3
48 36 3
48 37 4
48 39 2
48 40 4
48 41 1
48 43 5
48 44 5
48 45 1
48 46 4
48 47 2
49 2 4
49 6 4
49 8 2
49 11 4
49 14 3
49 15 5
49 17 3
49 18 1
49 19 3
49 23 1
49 26 1
49 27 1
49 28 5
49 32 5
49 37 5
49 38 1
49 39 1
49 40 5
49 41 2
49 45 1
50 0 4
50 2 2
50 5 1
50 10 2
50 11 5
50 12 3
50 14 3
50 19 4
50 22 1
50 26 5
50 28 4
50 30 3
50 34 4
50 36 1
50 41 2
50 42 3
50 43 1
50 44 2
50 45 2
50 49 1
51 1 3
51 2 2
51 3 5
51 5 3
51 7 3
51 10 3
51 12 3
51 13 2
51 23 4
51 26 1
51 28 3
51 30 2
51 31 5
51 32 4
51 34 4
51 35 5
51 36 3
51 38 5
51 39 1
51 40 4
51 41 1
51 43 1
51 46 1
51 47 1
51 50 4
52 1 5
52 3 3
52 4 5
52 6 4
52 7 1
52 8 2
52 10 5
52 11 2
52 13 4
52 16 1
52 17 2
52 20 4
52 24 4
52 25 3
52 27 3
52 31 2
52 33 5
52 35 1
52 36 4
52 39 4
52 43 1
52 44 3
52 46 3
52 48 4
52 49 1
52 50 5
53 0 1
53 3 2
53 4 5
53 6 2
53 7 1
53 8 4
53 9 2
53 11 5
53 12 5
53 13 2
53 15 3
53 16 5
53 17 5
53 18 4
53 20 4
53 23 3
53 24 2
53 29 1
53 32 2
53 33 2
53 35 3
53 38 4
53 42 3
53 43 2
53 44 2
53 46 3
53 47 4
53 48 5
53 52 4
54 1 1
54 4 1
54 5 2
54 6 1
54 7 1
54 8 1
54 10 2
54 11 5
54 13 3
54 18 1
54 19 5
54 25 1
54 27 1
54 28 2
54 30 4
54 31 3
54 32 1
54 33 1
54 35 5
54 36 1
54 37 4
54 38 5
54 43 2
54 44 5
54 45 3
54 46 4
54 47 3
54 49 5
54 50 5
54 51 2
54 52 1
55 0 4
55 1 4
55 3 2
55 5 4
55 6 2
55 8 1
55 10 4
55 12 1
55 13 5
55 21 3
55 25 3
55 26 5
55 27 1
55 29 5
55 30 5
55 31 2
55 32 3
55 34 3
55 36 3
55 37 1
55 38 3
55 39 1
55 46 5
55 47 1
55 50 5
55 51 3
55 54 3
56 0 4
56 1 2
56 3 4
56 4 1
56 7 2
56 10 3
56 11 2
56 12 4
56 18 4
56 19 5
56 20 1
56 21 2
56 24 2
56 27 3
56 28 1
56 31 3
56 33 1
56 35 3
56 36 4
56 38 2
56 39 5
56 40 3
56 46 4
56 47 2
56 48 5
56 49 5
56 50 2
56 51 3
56 52 1
56 53 3
56 54 4
56 55 5
57 2 2
57 4 5
57 5 4
57 7 2
57 10 5
57 11 5
57 13 2
57 15 5
57 16 2
57 18 5
57 21 1
57 26 3
57 27 3
57 29 4
57 33 1
57 35 2
57 36 5
57 38 4
57 39 1
57 40 3
57 41 4
57 42 4
57 46 3
57 47 4
57 49 4
57 50 5
57 53 2
57 54 1
58 1 2
58 7 5
58 8 1
58 9 3
58 11 4
58 15 3
58 19 3
58 20 5
58 21 2
58 24 2
58 25 3
58 26 5
58 27 5
58 32 2
58 33 2
58 34 1
58 37 3
58 39 5
58 41 2
58 44 4
58 46 5
58 47 1
58 48 2
58 50 3
58 57 4
59 0 1
59 1 5
59 2 4
59 5 3
59 7 4
59 8 5
59 17 2
59 18 2
59 19 5
59 22 3
59 23 1
59 26 5
59 27 1
59 28 4
59 29 3
59 31 3
59 33 5
59 34 1
59 35 4
59 43 4
59 45 2
59 47 4
59 49 4
59 51 1
59 52 5
59 53 2
59 55 1
59 57 5
60 0 5
60 3 4
60 6 2
60 7 1
60 8 3
60 9 1
60 11 1
60 12 5
60 15 3
60 16 4
60 18 2
60 21 4
60 22 1
60 23 4
60 25 1
60 26 5
60 27 3
60 28 1
60 29 5
60 30 3
60 31 1
60 32 3
60 35 3
60 43 1
60 44 2
60 45 3
60 46 3
60 47 3
60 48 4
60 50 2
60 51 5
60 53 2
60 58 1
60 59 5
61 4 1
61 10 1
61 12 3
61 13 4
61 15 2
61 16 4
61 19 4
61 20 1
61 21 4
61 23 2
61 24 4
61 25 3
61 26 2
61 27 3
61 31 4
61 32 1
61 33 3
61 35 4
61 36 5
61 38 2
61 40 4
61 44 3
61 46 5
61 48 5
61 53 5
61 55 3
61 56 2
61 57 5
61 58 2
62 1 2
62 2 5
62 5 5
62 6 1
62 7 1
62 8 5
62 10 5
62 11 3
62 12 2
62 13 3
62 14 1
62 15 2
62 16 4
62 18 4
62 22 4
62 27 2
62 29 3
62 32 2
62 34 4
62 37 5
62 38 1
62 39 2
62 42 5
62 44 3
62 48 3
62 51 5
62 53 1
62 54 3
62 57 5
62 59 1
63 2 4
63 4 2
63 5 2
63 7 5
63 8 5
63 13 1
63 14 5
63 18 5
63 20 2
63 22 5
63 26 4
63 27 2
63 32 4
63 34 2
63 35 3
63 38 2
63 39 2
63 43 5
63 44 4
63 45 4
63 48 2
63 51 5
63 53 2
63 54 4
63 56 3
63 57 4
63 59 2
63 62 5
64 0 2
64 4 3
64 5 1
64 6 5
64 7 3
64 8 4
64 9 2
64 10 2
64 12 1
64 13 1
64 14 3
64 19 4
64 21 3
64 27 3
64 32 3
64 33 4
64 34 5
64 36 4
64 39 3
64 45 1
64 46 1
64 47 4
64 55 5
64 58 4
64 60 4
64 61 1
64 63 2
65 0 2
65 1 2
65 3 5
65 5 4
65 7 1
65 8 4
65 11 1
65 15 5
65 16 3
65 20 1
65 25 3
65 28 4
65 30 2
65 31 2
65 32 1
65 42 5
65 44 5
65 46 2
65 47 2
65 49 4
65 51 2
65 54 5
65 55 4
65 56 2
65 58 1
65 59 1
65 60 3
65 61 5
66 1 3
66 6 3
66 7 5
66 13 1
66 15 5
66 17 4
66 19 1
66 20 3
66 22 2
66 25 5
66 26 2
66 29 5
66 30 2
66 32 5
66 34 2
66 35 5
66 36 5
66 39 2
66 51 3
66 53 2
66 55 1
66 56 1
66 60 2
66 61 2
66 62 4
66 65 2
67 4 5
67 5 3
67 6 1
67 7 2
67 8 4
67 9 3
67 15 4
67 16 3
67 17 3
67 19 4
67 20 2
67 22 3
67 24 4
67 26 4
67 27 5
67 28 2
67 29 2
67 30 2
67 34 5
67 35 5
67 38 3
67 40 1
67 43 1
67 45 3
67 46 1
67 49 4
67 51 5
67 52 5
67 53 4
67 54 5
67 55 2
67 56 1
67 64 3
67 65 1
67 66 3
68 2 4
68 4 1
68 8 5
68 9 4
68 10 5
68 11 4
68 12 2
68 13 1
68 14 4
68 19 4
68 21 2
68 23 3
68 25 4
68 27 1
68 32 3
68 33 2
68 34 3
68 42 2
68 45 3
68 46 1
68 48 4
68 51 4
68 52 5
68 53 2
68 55 1
68 58 2
68 60 1
68 61 5
68 62 2
68 65 2
69 5 3
69 8 1
69 10 2
69 12 5
69 13 3
69 14 5
69 15 4
69 16 5
69 18 1
69 20 3
69 22 4
69 23 4
69 29 4
69 35 2
69 39 3
69 43 2
69 44 5
69 46 3
69 48 1
69 51 5
69 53 4
69 56 1
69 59 1
69 60 3
69 61 5
69 62 2
69 64 5
69 65 5
69 66 4
69 67 5
69 68 4
